peakDumbCharging = 14800; 
Machine = anon_enum(16); 
machineSpeed = [3700,3700,3700,3700,3700,3700,3700,3700,3700,3700,3700,3700,3700,3700,3700,3700]; 
machineLoad = [3700,3700,3700,3700,3700,3700,3700,3700,3700,3700,3700,3700,3700,3700,3700,3700]; 
Car = anon_enum(16); 
demandCar = [1720,10880,26520,9920,2280,3560,35040,28640,6840,9320,32960,6880,10560,10560,8800,5520]; 
arrivalCar = [82,69,65,64,62,60,58,55,51,49,47,46,45,45,41,35]; 
departureCar = [85,73,74,69,64,63,74,70,54,54,62,49,49,49,45,39]; 
